p cnf 13 33
-2 -7 -10 0
-6 -9 -10 -11 0
-2 -9 -11 0
-1 -6 -9 0
-6 -7 -9 0
-6 -7 -10 0
-2 -6 -7 0
-1 -6 -7 0
-4 -6 -7 0
-6 -7 -13 0
-6 -7 -8 0
-6 -7 -11 -12 0
-3 -6 -7 -11 0
-3 -5 -12 0
-3 -6 -7 -12 0
-2 -4 -12 0
-2 -6 -10 0
-3 -6 -10 -13 0
-6 -8 -10 -13 0
-4 -6 -9 -13 0
-4 -9 -10 -12 0
-4 -12 -13 0
-4 -7 -8 -10 0
-4 -8 -9 0
-3 -5 -10 -11 0
-1 -7 -9 -10 0
-3 -4 -10 -11 0
-1 -7 -9 -11 0
-2 -4 -7 0
-1 -2 -6 -11 0
-1 -4 -6 0
-2 -4 -8 0
-2 -7 -13 0
